NAME : LPS-n25-m80
COMMENT : (Lartu-Peter-Santi Plot, instance 8880 out of 39200. 25 customers.)
TYPE : CVRP
DIMENSION : 25
EDGE_WEIGHT_TYPE : EUC_2D
CAPACITY : 146
NODE_COORD_SECTION
 1 18 79
 2 42 37
 3 25 3
 4 13 3
 5 23 61
 6 10 92
 7 70 27
 8 95 63
 9 83 97
 10 18 58
 11 59 69
 12 3 67
 13 46 6
 14 99 42
 15 4 38
 16 27 8
 17 71 36
 18 15 58
 19 80 67
 20 11 37
 21 15 0
 22 63 70
 23 30 25
 24 22 95
 25 34 9
DEMAND_SECTION
1 0
2 53
3 87
4 100
5 144
6 119
7 41
8 123
9 128
10 13
11 98
12 9
13 7
14 31
15 22
16 48
17 126
18 23
19 47
20 8
21 37
22 45
23 61
24 8
25 30
DEPOT_SECTION
 1
 -1
EOF
